p cnf 179 703
-1 -33 0
-2 -33 0
1 2 33 0
1 2 -34 0
-1 -2 -34 0
-1 2 34 0
1 -2 34 0
33 -35 0
-3 -35 0
3 -33 35 0
3 -33 -36 0
-3 33 -36 0
3 33 36 0
-3 -33 36 0
35 -37 0
-4 -37 0
4 -35 37 0
4 -35 -38 0
-4 35 -38 0
4 35 38 0
-4 -35 38 0
37 -39 0
-5 -39 0
5 -37 39 0
5 -37 -40 0
-5 37 -40 0
5 37 40 0
-5 -37 40 0
39 -41 0
-6 -41 0
6 -39 41 0
6 -39 -42 0
-6 39 -42 0
6 39 42 0
-6 -39 42 0
41 -43 0
-7 -43 0
7 -41 43 0
7 -41 -44 0
-7 41 -44 0
7 41 44 0
-7 -41 44 0
43 -45 0
-8 -45 0
8 -43 45 0
8 -43 -46 0
-8 43 -46 0
8 43 46 0
-8 -43 46 0
3 -47 0
1 -47 0
-1 -3 47 0
-1 -3 -48 0
1 3 -48 0
1 -3 48 0
-1 3 48 0
-2 -4 49 0
-4 -47 49 0
-2 -47 49 0
2 4 -49 0
4 47 -49 0
2 47 -49 0
4 -49 -50 0
2 -49 -50 0
47 -49 -50 0
-4 49 50 0
-2 49 50 0
-47 49 50 0
-2 -4 -47 50 0
2 4 47 -50 0
-3 -5 51 0
-5 -49 51 0
-3 -49 51 0
3 5 -51 0
5 49 -51 0
3 49 -51 0
5 -51 -52 0
3 -51 -52 0
49 -51 -52 0
-5 51 52 0
-3 51 52 0
-49 51 52 0
-3 -5 -49 52 0
3 5 49 -52 0
-4 -6 53 0
-6 -51 53 0
-4 -51 53 0
4 6 -53 0
6 51 -53 0
4 51 -53 0
6 -53 -54 0
4 -53 -54 0
51 -53 -54 0
-6 53 54 0
-4 53 54 0
-51 53 54 0
-4 -6 -51 54 0
4 6 51 -54 0
-5 -7 55 0
-7 -53 55 0
-5 -53 55 0
5 7 -55 0
7 53 -55 0
5 53 -55 0
7 -55 -56 0
5 -55 -56 0
53 -55 -56 0
-7 55 56 0
-5 55 56 0
-53 55 56 0
-5 -7 -53 56 0
5 7 53 -56 0
-6 -8 57 0
-8 -55 57 0
-6 -55 57 0
6 8 -57 0
8 55 -57 0
6 55 -57 0
8 -57 -58 0
6 -57 -58 0
55 -57 -58 0
-8 57 58 0
-6 57 58 0
-55 57 58 0
-6 -8 -55 58 0
6 8 55 -58 0
7 -59 0
57 -59 0
-7 -57 59 0
-7 -57 -60 0
7 57 -60 0
-7 57 60 0
7 -57 60 0
8 -61 0
59 -61 0
-8 -59 61 0
-8 -59 -62 0
8 59 -62 0
-8 59 62 0
8 -59 62 0
50 -63 0
1 -63 0
-1 -50 63 0
-1 -50 -64 0
1 50 -64 0
1 -50 64 0
-1 50 64 0
-2 -52 65 0
-52 -63 65 0
-2 -63 65 0
2 52 -65 0
52 63 -65 0
2 63 -65 0
52 -65 -66 0
2 -65 -66 0
63 -65 -66 0
-52 65 66 0
-2 65 66 0
-63 65 66 0
-2 -52 -63 66 0
2 52 63 -66 0
-3 -54 67 0
-54 -65 67 0
-3 -65 67 0
3 54 -67 0
54 65 -67 0
3 65 -67 0
54 -67 -68 0
3 -67 -68 0
65 -67 -68 0
-54 67 68 0
-3 67 68 0
-65 67 68 0
-3 -54 -65 68 0
3 54 65 -68 0
-4 -56 69 0
-56 -67 69 0
-4 -67 69 0
4 56 -69 0
56 67 -69 0
4 67 -69 0
56 -69 -70 0
4 -69 -70 0
67 -69 -70 0
-56 69 70 0
-4 69 70 0
-67 69 70 0
-4 -56 -67 70 0
4 56 67 -70 0
-5 -58 71 0
-58 -69 71 0
-5 -69 71 0
5 58 -71 0
58 69 -71 0
5 69 -71 0
58 -71 -72 0
5 -71 -72 0
69 -71 -72 0
-58 71 72 0
-5 71 72 0
-69 71 72 0
-5 -58 -69 72 0
5 58 69 -72 0
-6 -60 73 0
-60 -71 73 0
-6 -71 73 0
6 60 -73 0
60 71 -73 0
6 71 -73 0
60 -73 -74 0
6 -73 -74 0
71 -73 -74 0
-60 73 74 0
-6 73 74 0
-71 73 74 0
-6 -60 -71 74 0
6 60 71 -74 0
-7 -62 75 0
-62 -73 75 0
-7 -73 75 0
7 62 -75 0
62 73 -75 0
7 73 -75 0
62 -75 -76 0
7 -75 -76 0
73 -75 -76 0
-62 75 76 0
-7 75 76 0
-73 75 76 0
-7 -62 -73 76 0
7 62 73 -76 0
-8 -61 77 0
-61 -75 77 0
-8 -75 77 0
8 61 -77 0
61 75 -77 0
8 75 -77 0
61 -77 -78 0
8 -77 -78 0
75 -77 -78 0
-61 77 78 0
-8 77 78 0
-75 77 78 0
-8 -61 -75 78 0
8 61 75 -78 0
-1 -79 0
-2 -79 0
1 2 79 0
1 2 -80 0
-1 -2 -80 0
-1 2 80 0
1 -2 80 0
79 -81 0
-48 -81 0
48 -79 81 0
48 -79 -82 0
-48 79 -82 0
48 79 82 0
-48 -79 82 0
81 -83 0
-64 -83 0
64 -81 83 0
64 -81 -84 0
-64 81 -84 0
64 81 84 0
-64 -81 84 0
83 -85 0
-66 -85 0
66 -83 85 0
66 -83 -86 0
-66 83 -86 0
66 83 86 0
-66 -83 86 0
85 -87 0
-68 -87 0
68 -85 87 0
68 -85 -88 0
-68 85 -88 0
68 85 88 0
-68 -85 88 0
87 -89 0
-70 -89 0
70 -87 89 0
70 -87 -90 0
-70 87 -90 0
70 87 90 0
-70 -87 90 0
89 -91 0
-72 -91 0
72 -89 91 0
72 -89 -92 0
-72 89 -92 0
72 89 92 0
-72 -89 92 0
91 -93 0
-74 -93 0
74 -91 93 0
74 -91 -94 0
-74 91 -94 0
74 91 94 0
-74 -91 94 0
93 -95 0
-76 -95 0
76 -93 95 0
76 -93 -96 0
-76 93 -96 0
76 93 96 0
-76 -93 96 0
95 -97 0
-78 -97 0
78 -95 97 0
78 -95 -98 0
-78 95 -98 0
78 95 98 0
-78 -95 98 0
97 -99 0
-77 -99 0
77 -97 99 0
77 -97 -100 0
-77 97 -100 0
77 97 100 0
-77 -97 100 0
-9 -101 0
-10 -101 0
9 10 101 0
9 10 -102 0
-9 -10 -102 0
-9 10 102 0
9 -10 102 0
101 -103 0
-11 -103 0
11 -101 103 0
11 -101 -104 0
-11 101 -104 0
11 101 104 0
-11 -101 104 0
103 -105 0
-12 -105 0
12 -103 105 0
12 -103 -106 0
-12 103 -106 0
12 103 106 0
-12 -103 106 0
105 -107 0
-13 -107 0
13 -105 107 0
13 -105 -108 0
-13 105 -108 0
13 105 108 0
-13 -105 108 0
107 -109 0
-14 -109 0
14 -107 109 0
14 -107 -110 0
-14 107 -110 0
14 107 110 0
-14 -107 110 0
109 -111 0
-15 -111 0
15 -109 111 0
15 -109 -112 0
-15 109 -112 0
15 109 112 0
-15 -109 112 0
111 -113 0
-16 -113 0
16 -111 113 0
16 -111 -114 0
-16 111 -114 0
16 111 114 0
-16 -111 114 0
13 -115 0
9 -115 0
-9 -13 115 0
-9 -13 -116 0
9 13 -116 0
9 -13 116 0
-9 13 116 0
-10 -14 117 0
-14 -115 117 0
-10 -115 117 0
10 14 -117 0
14 115 -117 0
10 115 -117 0
14 -117 -118 0
10 -117 -118 0
115 -117 -118 0
-14 117 118 0
-10 117 118 0
-115 117 118 0
-10 -14 -115 118 0
10 14 115 -118 0
-11 -15 119 0
-15 -117 119 0
-11 -117 119 0
11 15 -119 0
15 117 -119 0
11 117 -119 0
15 -119 -120 0
11 -119 -120 0
117 -119 -120 0
-15 119 120 0
-11 119 120 0
-117 119 120 0
-11 -15 -117 120 0
11 15 117 -120 0
-12 -16 121 0
-16 -119 121 0
-12 -119 121 0
12 16 -121 0
16 119 -121 0
12 119 -121 0
16 -121 -122 0
12 -121 -122 0
119 -121 -122 0
-16 121 122 0
-12 121 122 0
-119 121 122 0
-12 -16 -119 122 0
12 16 119 -122 0
13 -123 0
121 -123 0
-13 -121 123 0
-13 -121 -124 0
13 121 -124 0
-13 121 124 0
13 -121 124 0
14 -125 0
123 -125 0
-14 -123 125 0
-14 -123 -126 0
14 123 -126 0
-14 123 126 0
14 -123 126 0
15 -127 0
125 -127 0
-15 -125 127 0
-15 -125 -128 0
15 125 -128 0
-15 125 128 0
15 -125 128 0
16 -129 0
127 -129 0
-16 -127 129 0
-16 -127 -130 0
16 127 -130 0
-16 127 130 0
16 -127 130 0
-9 -131 0
-10 -131 0
9 10 131 0
9 10 -132 0
-9 -10 -132 0
-9 10 132 0
9 -10 132 0
131 -133 0
-11 -133 0
11 -131 133 0
11 -131 -134 0
-11 131 -134 0
11 131 134 0
-11 -131 134 0
133 -135 0
-12 -135 0
12 -133 135 0
12 -133 -136 0
-12 133 -136 0
12 133 136 0
-12 -133 136 0
135 -137 0
-116 -137 0
116 -135 137 0
116 -135 -138 0
-116 135 -138 0
116 135 138 0
-116 -135 138 0
137 -139 0
-118 -139 0
118 -137 139 0
118 -137 -140 0
-118 137 -140 0
118 137 140 0
-118 -137 140 0
139 -141 0
-120 -141 0
120 -139 141 0
120 -139 -142 0
-120 139 -142 0
120 139 142 0
-120 -139 142 0
141 -143 0
-122 -143 0
122 -141 143 0
122 -141 -144 0
-122 141 -144 0
122 141 144 0
-122 -141 144 0
143 -145 0
-124 -145 0
124 -143 145 0
124 -143 -146 0
-124 143 -146 0
124 143 146 0
-124 -143 146 0
145 -147 0
-126 -147 0
126 -145 147 0
126 -145 -148 0
-126 145 -148 0
126 145 148 0
-126 -145 148 0
147 -149 0
-128 -149 0
128 -147 149 0
128 -147 -150 0
-128 147 -150 0
128 147 150 0
-128 -147 150 0
149 -151 0
-130 -151 0
130 -149 151 0
130 -149 -152 0
-130 149 -152 0
130 149 152 0
-130 -149 152 0
151 -153 0
-129 -153 0
129 -151 153 0
129 -151 -154 0
-129 151 -154 0
129 151 154 0
-129 -151 154 0
1 -155 0
11 -155 0
-1 -11 155 0
-1 -11 -156 0
1 11 -156 0
-1 11 156 0
1 -11 156 0
-2 -12 157 0
-2 -155 157 0
-12 -155 157 0
2 12 -157 0
2 155 -157 0
12 155 -157 0
2 -157 -158 0
12 -157 -158 0
155 -157 -158 0
-2 157 158 0
-12 157 158 0
-155 157 158 0
-2 -12 -155 158 0
2 12 155 -158 0
-48 -116 159 0
-48 -157 159 0
-116 -157 159 0
48 116 -159 0
48 157 -159 0
116 157 -159 0
48 -159 -160 0
116 -159 -160 0
157 -159 -160 0
-48 159 160 0
-116 159 160 0
-157 159 160 0
-48 -116 -157 160 0
48 116 157 -160 0
-64 -118 161 0
-64 -159 161 0
-118 -159 161 0
64 118 -161 0
64 159 -161 0
118 159 -161 0
64 -161 -162 0
118 -161 -162 0
159 -161 -162 0
-64 161 162 0
-118 161 162 0
-159 161 162 0
-64 -118 -159 162 0
64 118 159 -162 0
-66 -120 163 0
-66 -161 163 0
-120 -161 163 0
66 120 -163 0
66 161 -163 0
120 161 -163 0
66 -163 -164 0
120 -163 -164 0
161 -163 -164 0
-66 163 164 0
-120 163 164 0
-161 163 164 0
-66 -120 -161 164 0
66 120 161 -164 0
-68 -122 165 0
-68 -163 165 0
-122 -163 165 0
68 122 -165 0
68 163 -165 0
122 163 -165 0
68 -165 -166 0
122 -165 -166 0
163 -165 -166 0
-68 165 166 0
-122 165 166 0
-163 165 166 0
-68 -122 -163 166 0
68 122 163 -166 0
-70 -124 167 0
-70 -165 167 0
-124 -165 167 0
70 124 -167 0
70 165 -167 0
124 165 -167 0
70 -167 -168 0
124 -167 -168 0
165 -167 -168 0
-70 167 168 0
-124 167 168 0
-165 167 168 0
-70 -124 -165 168 0
70 124 165 -168 0
-72 -126 169 0
-72 -167 169 0
-126 -167 169 0
72 126 -169 0
72 167 -169 0
126 167 -169 0
72 -169 -170 0
126 -169 -170 0
167 -169 -170 0
-72 169 170 0
-126 169 170 0
-167 169 170 0
-72 -126 -167 170 0
72 126 167 -170 0
-74 -128 171 0
-74 -169 171 0
-128 -169 171 0
74 128 -171 0
74 169 -171 0
128 169 -171 0
74 -171 -172 0
128 -171 -172 0
169 -171 -172 0
-74 171 172 0
-128 171 172 0
-169 171 172 0
-74 -128 -169 172 0
74 128 169 -172 0
-76 -130 173 0
-76 -171 173 0
-130 -171 173 0
76 130 -173 0
76 171 -173 0
130 171 -173 0
76 -173 -174 0
130 -173 -174 0
171 -173 -174 0
-76 173 174 0
-130 173 174 0
-171 173 174 0
-76 -130 -171 174 0
76 130 171 -174 0
-78 -129 175 0
-78 -173 175 0
-129 -173 175 0
78 129 -175 0
78 173 -175 0
129 173 -175 0
78 -175 -176 0
129 -175 -176 0
173 -175 -176 0
-78 175 176 0
-129 175 176 0
-173 175 176 0
-78 -129 -173 176 0
78 129 173 -176 0
77 -177 0
175 -177 0
-77 -175 177 0
-77 -175 -178 0
77 175 -178 0
-77 175 178 0
77 -175 178 0
9 -179 0
10 -179 0
156 -179 0
-158 -179 0
-160 -179 0
-162 -179 0
164 -179 0
-166 -179 0
-168 -179 0
-170 -179 0
-172 -179 0
-174 -179 0
-176 -179 0
-177 -179 0
-178 -179 0
-9 -10 -156 158 160 162 -164 166 168 170 172 174 176 177 178 179 0
179 0
c main::$tmp::return_value_nondet_char!0@1#1 17 18 19 20 21 22 23 24
c symex::nondet1 9 10 11 12 13 14 15 16
c symex::nondet0 1 2 3 4 5 6 7 8
c main::$tmp::return_value_nondet_char$0!0@1#2 9 10 11 12 13 14 15 16
c __CPROVER_rounding_mode!0#1 FALSE FALSE FALSE FALSE FALSE FALSE FALSE FALSE FALSE FALSE FALSE FALSE FALSE FALSE FALSE FALSE FALSE FALSE FALSE FALSE FALSE FALSE FALSE FALSE FALSE FALSE FALSE FALSE FALSE FALSE FALSE FALSE
c main::$tmp::return_value_nondet_char$0!0@1#1 25 26 27 28 29 30 31 32
c __CPROVER_memory_leak#1 FALSE FALSE FALSE FALSE FALSE FALSE FALSE FALSE FALSE FALSE FALSE FALSE FALSE FALSE FALSE FALSE FALSE FALSE FALSE FALSE FALSE FALSE FALSE FALSE FALSE FALSE FALSE FALSE FALSE FALSE FALSE FALSE FALSE FALSE FALSE FALSE FALSE FALSE FALSE FALSE FALSE FALSE FALSE FALSE FALSE FALSE FALSE FALSE FALSE FALSE FALSE FALSE FALSE FALSE FALSE FALSE FALSE FALSE FALSE FALSE FALSE FALSE FALSE FALSE
c __CPROVER_max_malloc_size#1 FALSE FALSE FALSE FALSE FALSE FALSE FALSE FALSE FALSE FALSE FALSE FALSE FALSE FALSE FALSE FALSE FALSE FALSE FALSE FALSE FALSE FALSE FALSE FALSE FALSE FALSE FALSE FALSE FALSE FALSE FALSE FALSE FALSE FALSE FALSE FALSE FALSE FALSE FALSE FALSE FALSE FALSE FALSE FALSE FALSE FALSE FALSE FALSE FALSE FALSE FALSE FALSE FALSE FALSE FALSE TRUE FALSE FALSE FALSE FALSE FALSE FALSE FALSE FALSE
c __CPROVER_deallocated#1 FALSE FALSE FALSE FALSE FALSE FALSE FALSE FALSE FALSE FALSE FALSE FALSE FALSE FALSE FALSE FALSE FALSE FALSE FALSE FALSE FALSE FALSE FALSE FALSE FALSE FALSE FALSE FALSE FALSE FALSE FALSE FALSE FALSE FALSE FALSE FALSE FALSE FALSE FALSE FALSE FALSE FALSE FALSE FALSE FALSE FALSE FALSE FALSE FALSE FALSE FALSE FALSE FALSE FALSE FALSE FALSE FALSE FALSE FALSE FALSE FALSE FALSE FALSE FALSE
c main::$tmp::return_value_nondet_char!0@1#2 1 2 3 4 5 6 7 8
c __CPROVER_dead_object#1 FALSE FALSE FALSE FALSE FALSE FALSE FALSE FALSE FALSE FALSE FALSE FALSE FALSE FALSE FALSE FALSE FALSE FALSE FALSE FALSE FALSE FALSE FALSE FALSE FALSE FALSE FALSE FALSE FALSE FALSE FALSE FALSE FALSE FALSE FALSE FALSE FALSE FALSE FALSE FALSE FALSE FALSE FALSE FALSE FALSE FALSE FALSE FALSE FALSE FALSE FALSE FALSE FALSE FALSE FALSE FALSE FALSE FALSE FALSE FALSE FALSE FALSE FALSE FALSE
